3055,3056,3057,3083,3084,3085,3086,3112,3113,3114,3115,3141,3489,3490,3491,3492,3518,3519,3520,3521,3547,3548,3549,3550,3575,3576,3925,3926,3954,3955,3983,3984,4011,4419;1775,1776,1777,1805,2184,2210,2211,2212,2238,2239,2240,2241,2268,2269,2619,2646,2647,2648,2649,2674,2675,2676,2677,2703,2704,2705,2706,3054,3081,3082,3110,3111,3139,3140;1367,1368,1369,1395,1396,1397,1398,1424,1425,1426,1774,1802,1803,1804,1831,1832,1833,1834,1860,1861,2267,2295,2296,2731;1749,1750,2185,2186,2620;2621,2650,2678,2679;2622,2623;522,523,551,552,957,958,959,986,987,988,1015,1394,1423,1450,1451;32,33,58,59,60,61,62,467,468,469,494,495,496,497,498,902,903,904,905,931,932,933,960,961,962,989,990,991,1338,1339,1340;1341